% File represents an instance of a Composite Structure problem to be solved by a CP framework
% Created on 2025-03-25 14:05:14.190
T = 60;
n = 16;
m = 24;
edges = [(2, 1),
(6, 5),
(10, 9),
(14, 13),
(3, 2),
(7, 6),
(10, 11),
(14, 15),
(4, 3),
(8, 7),
(11, 12),
(15, 16),
(1, 5),
(9, 5),
(9, 13),
(6, 2),
(10, 6),
(14, 10),
(3, 7),
(11, 7),
(11, 15),
(8, 4),
(12, 8),
(12, 16)];
counts = [|2, 11, 21, 10,
|2, 12, 21, 10,
|2, 13, 22, 14,
|2, 13, 23, 14,
|2, 11, 19, 10,
|2, 12, 21, 14,
|2, 13, 21, 14,
|2, 13, 24, 14,
|2, 12, 23, 15,
|2, 13, 28, 16,
|2, 13, 28, 15,
|2, 13, 27, 15,
|2, 11, 22, 15,
|3, 13, 28, 16,
|2, 12, 28, 15,
|2, 11, 24, 15|];
